58 80
1 10 2
1 3 2
7 9 1
5 9 2
4 9 1
5 8 1
2 6 2
9 8 1
10 9 1
6 3 1
8 9 2
1 9 2
5 10 1
2 10 2
8 1 2
10 8 1
3 1 1
10 2 1
1 7 2
9 4 1
8 5 1
7 6 3
10 6 2
1 8 1
9 6 1
7 10 2
10 1 1
10 4 1
4 6 2
10 7 1
8 8 2
4 10 1
2 3 1
2 1 2
1 2 1
2 4 1
6 5 1
8 7 1
6 2 1
10 5 1
3 10 2
8 3 3
5 6 1
4 8 1
7 1 1
5 7 1
6 9 2
3 5 2
7 7 1
4 1 1
1 5 1
2 8 2
7 4 1
9 3 1
5 3 1
1 6 1
5 1 1
7 3 1
30 30 
30 30 
30 30 
30 30 
30 30 
30 30 
30 30 
30 30 
30 30 
30 30 
30 30 
30 30 
30 30 
30 30 
30 30 
30 30 
30 30 
30 30 
30 30 
30 30 
30 30 
30 30 
30 30 
30 30 
30 30 
30 30 
30 30 
30 30 
30 30 
30 30 
30 30 
30 30 
30 30 
30 30 
30 30 
30 30 
30 30 
30 30 
30 30 
30 30 
30 30 
30 30 
30 30 
30 30 
30 30 
30 30 
30 30 
30 30 
30 30 
30 30 
30 30 
30 30 
30 30 
30 30 
30 30 
30 30 
30 30 
30 30 
30 30 
30 30 
30 30 
30 30 
30 30 
30 30 
30 30 
30 30 
30 30 
30 30 
30 30 
30 30 
30 30 
30 30 
30 30 
30 30 
30 30 
30 30 
30 30 
30 30 
30 30 
30 30 
